(set-info :smt-lib-version 2.6)
(set-logic UFNIA)
(set-info :source |
Generated by: Geoff Sutcliffe
Generated on: 2026-03-11
Generator: TPTPWorld
Application: Benchmarking automated theorem provers
Time limit: 120.0

These benchmarks are translations from the TPTP Library (Thousands of
Problems for Theorem Provers), see http://www.cs.miami.edu/~tptp/

The TPTP is maintained by Geoff Sutcliffe, and he contributed this
selection of benchmarks to SMT-LIB.  They were exported from the
v9.2.1 realease of TPTP.
|)
(set-info :category "industrial")
(set-info :status "unknown")
; SZS status Success
(declare-sort $$unsorted 0)
(declare-sort |tptp.'Array[Int,Int]'| 0)
(declare-fun |tptp.'select:(Array[Int,Int]*Int)>Int'| (|tptp.'Array[Int,Int]'| Int) Int)
(declare-fun |tptp.'store:(Array[Int,Int]*Int*Int)>Array[Int,Int]'| (|tptp.'Array[Int,Int]'| Int Int) |tptp.'Array[Int,Int]'|)
(declare-fun |tptp.'const:(Int)>Array[Int,Int]'| (Int) |tptp.'Array[Int,Int]'|)
(assert (forall ((A |tptp.'Array[Int,Int]'|) (I Int) (E Int)) (= (|tptp.'select:(Array[Int,Int]*Int)>Int'| (|tptp.'store:(Array[Int,Int]*Int*Int)>Array[Int,Int]'| A I E) I) E)))
(assert (forall ((A |tptp.'Array[Int,Int]'|) (I Int) (J Int) (E Int)) (=> (not (= I J)) (= (|tptp.'select:(Array[Int,Int]*Int)>Int'| (|tptp.'store:(Array[Int,Int]*Int*Int)>Array[Int,Int]'| A I E) J) (|tptp.'select:(Array[Int,Int]*Int)>Int'| A J)))))
(assert (forall ((A |tptp.'Array[Int,Int]'|) (B |tptp.'Array[Int,Int]'|)) (=> (forall ((I Int)) (= (|tptp.'select:(Array[Int,Int]*Int)>Int'| A I) (|tptp.'select:(Array[Int,Int]*Int)>Int'| B I))) (= A B))))
(assert (forall ((I Int) (E Int)) (= (|tptp.'select:(Array[Int,Int]*Int)>Int'| (|tptp.'const:(Int)>Array[Int,Int]'| E) I) E)))
(declare-fun tptp.length (|tptp.'Array[Int,Int]'|) Int)
(declare-fun tptp.div2 (Int) Int)
(declare-fun tptp.sorted (|tptp.'Array[Int,Int]'| Int Int) Bool)
(assert (forall ((A Int) (Res Int)) (= (and (<= (* 2 Res) A) (> (* 2 (+ Res 1)) A)) (= (tptp.div2 A) Res))))
(assert (forall ((A |tptp.'Array[Int,Int]'|)) (>= (tptp.length A) 0)))
(assert (forall ((A |tptp.'Array[Int,Int]'|) (L Int) (U Int)) (= (tptp.sorted A L U) (forall ((I Int) (J Int)) (=> (and (<= L I) (< I J) (<= J U)) (<= (|tptp.'select:(Array[Int,Int]*Int)>Int'| A I) (|tptp.'select:(Array[Int,Int]*Int)>Int'| A J)))))))
(assert (not (forall ((L Int) (U Int) (A |tptp.'Array[Int,Int]'|) (E Int)) (let ((_let_1 (> L U))) (let ((_let_2 (tptp.length A))) (=> (and (<= 0 L) (< U _let_2) (tptp.sorted A 0 (- _let_2 1))) (= (and (=> _let_1 false) (=> (not _let_1) (exists ((M_2 Int)) (let ((_let_1 (|tptp.'select:(Array[Int,Int]*Int)>Int'| A M_2))) (let ((_let_2 (< _let_1 E))) (let ((_let_3 (= _let_1 E))) (and (= M_2 (tptp.div2 (+ L U))) (=> _let_3 true) (=> (not _let_3) (and (=> _let_2 (exists ((L_4 Int)) (and (= L_4 (+ M_2 1)) (exists ((I Int)) (and (<= L_4 I) (<= I U) (= (|tptp.'select:(Array[Int,Int]*Int)>Int'| A I) E)))))) (=> (not _let_2) (exists ((U_6 Int)) (and (= U_6 (- M_2 1)) (exists ((I Int)) (and (<= L I) (<= I U_6) (= (|tptp.'select:(Array[Int,Int]*Int)>Int'| A I) E))))))))))))))) (exists ((I Int)) (and (<= L I) (<= I U) (= (|tptp.'select:(Array[Int,Int]*Int)>Int'| A I) E))))))))))
(check-sat)
